# LAMMPS data file written by OVITO Basic 3.14.1

420 atoms
3 atom types

0.000000   12.820421   xlo xhi
0.000000    12.336456  ylo yhi
0.000000    91.136543  zlo zhi
0.000000    0.000000   0.000000   xy xz yz


Masses

  1  1.00794  # H
  2  12.0107  # C
  3  15.9994  # O

Atoms  # atomic

  1  2  0.712674383  0.6169708375  31.4978828993
  2  2  1.4249128716  1.8506164375  31.4978828993
  3  2  0.712674383  3.0842620375  31.4978828993
  4  2  1.4249128716  4.3179076375  31.4978828993
  5  2  0.712674383  5.5515532375  31.4978828993
  6  2  1.4249128716  6.7851988375  31.4978828993
  7  2  0.712674383  8.0188444375  31.4978828993
  8  2  1.4249128716  9.2524900375  31.4978828993
  9  2  0.712674383  10.4861356375  31.4978828993
  10  2  1.4249128716  11.7197812375  31.4978828993
  11  2  2.8494026694  1.8506164375  31.4978828993
  12  2  3.5616539784  3.0842620375  31.4978828993
  13  2  2.8494026694  4.3179076375  31.4978828993
  14  2  3.5616539784  5.5515532375  31.4978828993
  15  2  2.8494026694  6.7851988375  31.4978828993
  16  2  3.5616539784  8.0188444375  31.4978828993
  17  2  2.8494026694  9.2524900375  31.4978828993
  18  2  3.5616539784  10.4861356375  31.4978828993
  19  2  2.8494026694  11.7197812375  31.4978828993
  20  2  3.5616539784  0.6169708375  31.4978828993
  21  2  4.9861437762  0.6169708375  31.4978828993
  22  2  5.6983822648  1.8506164375  31.4978828993
  23  2  4.9861437762  3.0842620375  31.4978828993
  24  2  5.6983822648  4.3179076375  31.4978828993
  25  2  4.9861437762  5.5515532375  31.4978828993
  26  2  5.6983822648  6.7851988375  31.4978828993
  27  2  4.9861437762  8.0188444375  31.4978828993
  28  2  5.6983822648  9.2524900375  31.4978828993
  29  2  4.9861437762  10.4861356375  31.4978828993
  30  2  5.6983822648  11.7197812375  31.4978828993
  31  2  7.122884883  1.8506164375  31.4978828993
  32  2  7.8351233716  3.0842620375  31.4978828993
  33  2  7.122884883  4.3179076375  31.4978828993
  34  2  7.8351233716  5.5515532375  31.4978828993
  35  2  7.122884883  6.7851988375  31.4978828993
  36  2  7.8351233716  8.0188444375  31.4978828993
  37  2  7.122884883  9.2524900375  31.4978828993
  38  2  7.8351233716  10.4861356375  31.4978828993
  39  2  7.122884883  11.7197812375  31.4978828993
  40  2  7.8351233716  0.6169708375  31.4978828993
  41  2  9.2596131694  0.6169708375  31.4978828993
  42  2  9.9718644784  1.8506164375  31.4978828993
  43  2  9.2596131694  3.0842620375  31.4978828993
  44  2  9.9718644784  4.3179076375  31.4978828993
  45  2  9.2596131694  5.5515532375  31.4978828993
  46  2  9.9718644784  6.7851988375  31.4978828993
  47  2  9.2596131694  8.0188444375  31.4978828993
  48  2  9.9718644784  9.2524900375  31.4978828993
  49  2  9.2596131694  10.4861356375  31.4978828993
  50  2  9.9718644784  11.7197812375  31.4978828993
  51  2  11.3963542762  1.8506164375  31.4978828993
  52  2  12.1085927648  3.0842620375  31.4978828993
  53  2  11.3963542762  4.3179076375  31.4978828993
  54  2  12.1085927648  5.5515532375  31.4978828993
  55  2  11.3963542762  6.7851988375  31.4978828993
  56  2  12.1085927648  8.0188444375  31.4978828993
  57  2  11.3963542762  9.2524900375  31.4978828993
  58  2  12.1085927648  10.4861356375  31.4978828993
  59  2  11.3963542762  11.7197812375  31.4978828993
  60  2  12.1085927648  0.6169708375  31.4978828993
  61  2  4.2607130743  6.8347297083  38.0622658185
  62  2  3.7907164404  8.7257233663  39.0872785176
  63  2  4.6397103599  9.0357261691  37.8682361185
  64  2  8.9287052829  10.693733519  35.2452352744
  65  2  11.0557156902  10.0497335065  35.6742149823
  66  2  11.0167159695  11.5267280375  35.3731909808
  67  2  11.840710068  5.7087320234  41.2162281621
  68  2  12.5227051835  7.7837239226  40.9332491961
  69  2  11.1327151387  7.6037226931  40.2972072625
  70  2  6.721708269  7.5117297407  49.7292015072
  71  2  8.4667085918  6.7717274275  48.5112527466
  72  2  8.7807063429  6.5647216958  50.0112691078
  73  2  8.9917048317  3.8607309146  53.7902458633
  74  2  10.6177060067  2.5437278814  54.6022724614
  75  2  9.6227131329  2.9787236564  55.7072119087
  76  2  7.5747149803  4.7557284609  36.3482608543
  77  2  7.7577136696  6.8667304752  35.6722099783
  78  2  8.3747092507  6.7367289018  37.1012309726
  79  2  3.6927043219  8.9607328531  46.632199503
  80  2  5.4737043868  7.8857217408  45.7122672379
  81  2  4.1807136473  7.0717253645  45.6012629286
  82  2  0.9707109964  5.7287294185  49.6562011363
  83  2  2.7867108107  4.4057308677  49.8442158245
  84  2  3.2327076164  5.8847239047  49.6802611836
  85  2  10.9047039512  11.5001799842  41.008254571
  86  2  11.2157145443  1.2117237177  41.8931904035
  87  2  9.7587121589  0.7237305277  42.0512211691
  88  2  2.0407161535  2.2057336599  41.6252489671
  89  2  3.185707953  3.4367269218  40.0822161576
  90  2  2.8317104884  4.228727397  41.3592213981
  91  2  9.8417115644  3.3407246213  45.7782500951
  92  2  10.5227066871  3.3447339695  47.9342672928
  93  2  10.381707697  1.9257331181  47.3152678928
  94  2  10.455707167  7.5997256813  45.3222028339
  95  2  12.4307058424  7.3287307524  46.2952677035
  96  2  12.439705778  6.7067266409  44.892220624
  97  2  3.1507082037  3.0347311666  54.0932748688
  98  2  4.5797107896  2.9027310874  55.8022673231
  99  2  4.7587095076  1.7037262559  54.8782339136
  100  2  11.2157145443  10.8417339817  49.4692800866
  101  2  0.3912920693  10.8267328512  48.4322373638
  102  2  0.3222925635  9.6777276758  49.4462225412
  103  2  1.8647045936  3.7377241118  46.2212648306
  104  2  1.7617053313  1.9177267581  45.0032249334
  105  2  1.4647074584  1.5297328805  46.4111933862
  106  2  6.0667129601  2.6027331504  43.8082425816
  107  2  6.6427088348  1.9817282918  45.869204365
  108  2  5.6187161687  3.186728641  45.8762218788
  109  2  4.3387125157  0.6582732922  48.8942085002
  110  2  5.1797064924  11.1237330294  49.7122501102
  111  2  3.7267168988  11.2087312112  49.9992390841
  112  2  5.6057162618  6.5777243205  41.9372093538
  113  2  7.2477045018  5.5677263313  40.8542338133
  114  2  7.4677157466  5.6127297228  42.3472326608
  115  2  6.6597087131  3.5877251433  49.7882579871
  116  2  7.6637143429  2.0117305528  51.0242517832
  117  2  6.3297110765  2.4807256006  51.7452329749
  118  2  8.9447051683  0.7077301443  38.5051894175
  119  2  6.8437073953  0.2297294836  37.6962614618
  120  2  6.7297082117  1.4477324574  38.5982398279
  121  2  0.6357133957  6.8867278704  36.0422243429
  122  2  12.4991284293  4.8987326589  36.520235511
  123  2  0.9527111254  4.6247276346  35.6232696548
  124  2  10.2797084275  11.0957292743  45.2502049649
  125  2  9.1067168285  10.5237248189  47.022263907
  126  2  8.1017112059  10.5797323291  45.9262558409
  127  2  12.1991305779  12.2821879301  52.080250907
  128  2  12.3131297615  1.9357256474  50.8732385315
  129  2  0.8477118774  1.2057282001  51.0132242615
  130  2  3.389706492  11.1617293139  44.2112483747
  131  2  2.3827137041  9.9177334273  42.7341984223
  132  2  1.417707795  10.2437242771  43.7972150599
  133  2  3.3017071222  7.7327250135  52.9272739376
  134  2  4.6937099732  6.5967224627  54.1192487835
  135  2  3.7267168988  7.2547243528  55.0482035663
  136  2  7.650714436  9.7447269683  40.6432527163
  137  2  6.5147097516  9.9357323166  42.4962409086
  138  2  6.1617122798  11.0787296379  41.5942625425
  139  2  1.3187085041  0.5202776953  55.8692526822
  140  2  2.1827151365  11.4477253733  54.3302298806
  141  2  2.1227155662  10.7197264318  55.6782304881
  142  2  6.4177104463  9.9367315695  53.7142379864
  143  2  8.5307081334  9.3527237425  53.3422186179
  144  2  8.3177096589  10.8097332148  53.0092056898
  145  2  2.6347118993  0.4297281083  37.635199978
  146  2  0.8407119275  12.1121792299  38.7442405698
  147  2  0.5667138899  1.1337326429  38.1602376022
  148  2  11.2577142435  6.5637224429  54.7192006461
  149  2  12.7177037869  5.8757306282  53.1402600386
  150  2  11.7757105336  7.0317305742  52.6562338587
  151  2  0.8154172369  0.7390647425  59.6386601007
  152  2  1.5276685459  1.9727103425  59.6386601007
  153  2  0.8154172369  3.2063559425  59.6386601007
  154  2  1.5276685459  4.4400015425  59.6386601007
  155  2  0.8154172369  5.6736471425  59.6386601007
  156  2  1.5276685459  6.9072927425  59.6386601007
  157  2  0.8154172369  8.1409383425  59.6386601007
  158  2  1.5276685459  9.3745839425  59.6386601007
  159  2  0.8154172369  10.6082295425  59.6386601007
  160  2  1.5276685459  11.8418751425  59.6386601007
  161  2  2.9521583437  1.9727103425  59.6386601007
  162  2  3.6643968323  3.2063559425  59.6386601007
  163  2  2.9521583437  4.4400015425  59.6386601007
  164  2  3.6643968323  5.6736471425  59.6386601007
  165  2  2.9521583437  6.9072927425  59.6386601007
  166  2  3.6643968323  8.1409383425  59.6386601007
  167  2  2.9521583437  9.3745839425  59.6386601007
  168  2  3.6643968323  10.6082295425  59.6386601007
  169  2  2.9521583437  11.8418751425  59.6386601007
  170  2  3.6643968323  0.7390647425  59.6386601007
  171  2  5.0888994505  0.7390647425  59.6386601007
  172  2  5.8011379391  1.9727103425  59.6386601007
  173  2  5.0888994505  3.2063559425  59.6386601007
  174  2  5.8011379391  4.4400015425  59.6386601007
  175  2  5.0888994505  5.6736471425  59.6386601007
  176  2  5.8011379391  6.9072927425  59.6386601007
  177  2  5.0888994505  8.1409383425  59.6386601007
  178  2  5.8011379391  9.3745839425  59.6386601007
  179  2  5.0888994505  10.6082295425  59.6386601007
  180  2  5.8011379391  11.8418751425  59.6386601007
  181  2  7.2256277369  1.9727103425  59.6386601007
  182  2  7.9378790459  3.2063559425  59.6386601007
  183  2  7.2256277369  4.4400015425  59.6386601007
  184  2  7.9378790459  5.6736471425  59.6386601007
  185  2  7.2256277369  6.9072927425  59.6386601007
  186  2  7.9378790459  8.1409383425  59.6386601007
  187  2  7.2256277369  9.3745839425  59.6386601007
  188  2  7.9378790459  10.6082295425  59.6386601007
  189  2  7.2256277369  11.8418751425  59.6386601007
  190  2  7.9378790459  0.7390647425  59.6386601007
  191  2  9.3623688437  0.7390647425  59.6386601007
  192  2  10.0746073323  1.9727103425  59.6386601007
  193  2  9.3623688437  3.2063559425  59.6386601007
  194  2  10.0746073323  4.4400015425  59.6386601007
  195  2  9.3623688437  5.6736471425  59.6386601007
  196  2  10.0746073323  6.9072927425  59.6386601007
  197  2  9.3623688437  8.1409383425  59.6386601007
  198  2  10.0746073323  9.3745839425  59.6386601007
  199  2  9.3623688437  10.6082295425  59.6386601007
  200  2  10.0746073323  11.8418751425  59.6386601007
  201  2  11.4991099505  1.9727103425  59.6386601007
  202  2  12.2113484391  3.2063559425  59.6386601007
  203  2  11.4991099505  4.4400015425  59.6386601007
  204  2  12.2113484391  5.6736471425  59.6386601007
  205  2  11.4991099505  6.9072927425  59.6386601007
  206  2  12.2113484391  8.1409383425  59.6386601007
  207  2  11.4991099505  9.3745839425  59.6386601007
  208  2  12.2113484391  10.6082295425  59.6386601007
  209  2  11.4991099505  11.8418751425  59.6386601007
  210  2  12.2113484391  0.7390647425  59.6386601007
  211  3  4.1507138621  5.6457297426  37.7742743426
  212  3  3.7557166911  7.3007269973  39.1271963235
  213  3  5.0007077744  7.6967272349  37.3972424642
  214  3  7.7327138487  10.6017282302  34.9792077054
  215  3  9.6907126459  9.6617272924  35.5752406966
  216  3  9.6547129037  11.7677330419  35.207231336
  217  3  11.9097095738  4.5627246068  41.4812532292
  218  3  12.7697162349  6.5507321547  41.5972700484
  219  3  10.9007168003  6.2407293519  40.3762226453
  220  3  5.5567166128  7.754733251  49.9122036856
  221  3  7.2877170358  7.6057335354  48.5862581214
  222  3  7.5727149946  7.086726495  50.6192409861
  223  3  8.3697092865  4.4957253143  52.9422203307
  224  3  10.0457101034  3.1137338309  53.4822043479
  225  3  8.7217067655  3.876731298  55.1472689886
  226  3  7.3167040076  3.5557243764  36.3152694258
  227  3  7.1897049172  5.602724857  35.4612288813
  228  3  8.2357102462  5.3437332997  37.336272117
  229  3  3.0107092064  9.8647236758  47.0912542701
  230  3  5.027707581  9.0187265327  46.4352534336
  231  3  3.1587081464  7.8337235787  46.1682233626
  232  3  12.6271275126  5.939732162  49.3752271742
  233  3  1.3987079311  4.5177335518  50.0852719807
  234  3  1.9777166047  6.5047295103  49.3641996525
  235  3  11.1577149597  10.5251805207  40.2921947526
  236  3  11.8087102972  0.1317286772  41.1402202853
  237  3  9.7727120586  11.7141804864  41.5962675464
  238  3  1.5197070645  1.1937248284  42.0842125977
  239  3  2.6257119637  2.137722778  40.4942444685
  240  3  2.0137163469  3.4357276689  42.055231177
  241  3  9.4917140711  3.9187245942  44.7192434654
  242  3  9.8967111705  4.093729559  46.9622049252
  243  3  10.0307102108  2.0707234854  45.9652622813
  244  3  9.2747156253  7.7877332708  45.0852478221
  245  3  11.0867154682  7.6927302231  46.4632323523
  246  3  11.2817140716  7.2707247363  44.3862305373
  247  3  2.2777144561  3.5107333214  53.4002725958
  248  3  3.6017049736  3.6337277877  55.129223953
  249  3  3.9017156455  2.0147283116  53.7982658791
  250  3  10.0857098169  11.1777296973  49.8582508521
  251  3  12.0317087001  11.564724322  48.7542227702
  252  3  11.8047103259  9.6347227902  49.7812404733
  253  3  2.0297162323  4.9257248246  46.6062255882
  254  3  2.0467161105  3.3247242378  45.0012199295
  255  3  1.4137078237  2.8387295537  46.9782449568
  256  3  6.0537130533  2.7077287274  42.5252223292
  257  3  6.7287082189  1.7157296276  44.4972348467
  258  3  5.3577052176  3.4107340091  44.5492738127
  259  3  4.2787129454  1.8112754793  48.422212344
  260  3  5.4917042579  0.0572658288  49.1482060456
  261  3  3.3047071007  0.0642729358  49.3942747117
  262  3  4.5747108254  7.2807296021  42.1422665755
  263  3  6.0177133111  6.2497226283  40.742227002
  264  3  6.3297110765  6.2427278578  42.9352456362
  265  3  6.4067105251  4.3037330495  48.8131881135
  266  3  7.7017140707  2.7947254152  49.931251223
  267  3  5.8337146289  3.494732938  50.8402471029
  268  3  10.1387094373  0.7237305277  38.5662509013
  269  3  8.2097104324  12.1171878311  37.8212096623
  270  3  8.0697114351  1.7047255088  38.9552216668
  271  3  0.8637117628  8.0787255949  35.9252050217
  272  3  12.6571272977  6.291728261  36.9012773972
  273  3  1.1457097431  5.9797269523  35.1492684946
  274  3  11.1807147949  11.5797254525  44.5642202058
  275  3  10.3927076182  10.6367267559  46.4512023286
  276  3  8.9977047887  11.1157266694  44.9181945388
  277  3  11.7041341231  11.3851795414  52.7481906306
  278  3  11.5251354051  1.0517322198  51.6612050823
  279  3  0.5987136607  12.2901819535  51.7301954453
  280  3  4.3387125157  11.7287251681  44.7692774275
  281  3  3.5547053102  10.5177293013  43.1472292352
  282  3  2.14871538  11.0887221672  44.7182409634
  283  3  2.8417104168  8.459724702  52.00925554
  284  3  4.4187119427  7.1237235266  52.8572810726
  285  3  2.7747108966  7.7197223888  54.1642702358
  286  3  8.2387102247  9.1857251376  39.767248265
  287  3  7.3917162909  9.209731881  41.7792697248
  288  3  6.9237068223  10.7987290961  40.4512280202
  289  3  0.7047129015  1.4942779059  56.3541902275
  290  3  1.7307055533  0.4222768889  54.634261388
  291  3  1.5387069284  11.6887303777  56.5792063522
  292  3  5.2417060484  9.8847334075  53.959213014
  293  3  7.1817049745  8.9557242519  53.465252951
  294  3  7.0937056048  11.099726286  53.5442683337
  295  3  3.8027163545  0.4817262703  37.280223143
  296  3  2.1137156307  11.7851891272  38.3372247688
  297  3  1.6997057753  1.3757245638  37.3762810594
  298  3  10.5847062431  6.4947246445  55.7011968969
  299  3  12.1267080197  5.5877237265  54.3871902199
  300  3  11.198714666  7.5687241674  53.7701958238
  301  1  4.293712838  9.1817281259  39.9402254236
  302  1  2.8327104812  9.2417326478  39.0332345476
  303  1  5.5557166199  9.5727320988  38.1122086441
  304  1  4.0937142704  9.4717335335  37.0312381076
  305  1  11.630711572  9.4987256992  34.9302673818
  306  1  11.5027124888  9.8947259368  36.6562112331
  307  1  11.5967118156  11.7937259547  34.4902601522
  308  1  11.445712897  12.2307325721  36.0862432932
  309  1  0.3942920479  7.9457262628  40.1062762049
  310  1  12.4587056419  8.5937232871  41.6602453996
  311  1  11.0267158979  7.8777277173  39.2472231506
  312  1  10.4117074821  8.1537312474  40.9012602695
  313  1  9.245715833  7.3357255229  47.998245146
  314  1  8.2317102748  5.909729901  47.8872408366
  315  1  9.6727127748  7.1617321475  50.2011976634
  316  1  8.8887055694  5.4977292799  50.2082151772
  317  1  11.5727119874  3.0107244233  54.8442399831
  318  1  10.7527050399  1.4627335879  54.6112038426
  319  1  10.3687077901  3.5017277085  56.3052499039
  320  1  9.2797155895  2.0997264935  56.2532109379
  321  1  6.8547073165  7.4677256021  35.7712754006
  322  1  8.4627086204  7.1967306732  34.9092148403
  323  1  7.8267131754  7.1727239298  37.9362239796
  324  1  9.4157146155  7.0057253249  37.2752106332
  325  1  6.258711585  7.2987284914  46.190278406
  326  1  5.8547144785  8.272728702  44.7672724236
  327  1  4.2577130958  6.186732684  46.2332037177
  328  1  3.842716068  6.6927247633  44.6372205767
  329  1  3.0387090058  3.7887230209  48.9812438988
  330  1  3.2397075663  3.8597316616  50.6711888157
  331  1  3.9207155094  5.9547332925  48.8372481609
  332  1  3.6567045797  6.3777256958  50.555263133
  333  1  11.3177138137  2.1537231614  41.3532063863
  334  1  11.8267101683  1.4257242199  42.7711998588
  335  1  9.0727042516  1.2517308445  41.3882028188
  336  1  9.4157146155  0.7437279229  43.0862588879
  337  1  2.6867115269  3.8287301477  39.1962778231
  338  1  4.2597130815  3.3457332224  39.9232740266
  339  1  2.2347147641  5.0787338884  41.0282134739
  340  1  3.774716555  4.5327223458  41.8142661573
  341  1  10.0737099029  3.4277336454  48.9241924229
  342  1  11.5807119301  3.599728515  47.9812026125
  343  1  9.4837141284  1.4807324772  47.7442476007
  344  1  11.1697148737  1.1787236979  47.4132396765
  345  1  12.7947160559  6.5567276724  46.9722299449
  346  1  0.2422931365  8.1987223024  46.473257372
  347  1  12.272706974  5.6297293591  44.8852031102
  348  1  0.5102912171  6.891724135  44.2912662595
  349  1  4.2517131388  2.5347222685  56.7742385542
  350  1  5.4557045157  3.5057247203  56.0402248369
  351  1  4.5717108469  0.7437279229  55.3592525876
  352  1  5.7427152806  1.6217258328  54.4152602752
  353  1  1.2952855949  11.4207332076  48.5621980741
  354  1  0.3742921911  10.5717259692  47.3722282321
  355  1  0.8822885528  9.8517333877  50.3652434408
  356  1  0.6742900425  8.8897242123  48.7801966849
  357  1  2.5707123577  1.4157316906  44.4722634339
  358  1  0.8447118988  1.8387240939  44.4192219659
  359  1  2.2617145707  0.9787250732  46.9112595976
  360  1  0.5667138899  0.9147235395  46.4471923207
  361  1  7.6167146795  2.1477276438  46.329261634
  362  1  6.1637122654  1.1367304017  46.3652605685
  363  1  6.0177133111  4.0927303061  46.331266638
  364  1  4.6567102381  2.9647341153  46.3391955172
  365  1  5.7987148796  10.9317284282  50.5892570635
  366  1  5.4147048093  10.357725467  48.973223883
  367  1  3.562705253  11.182725962  51.0772021147
  368  1  3.2567074445  10.3797337045  49.4682775846
  369  1  8.1037111916  6.0007236004  40.3362137029
  370  1  7.2667043657  4.5037316742  40.6201951709
  371  1  8.3457094584  6.1657236994  42.6822505928
  372  1  7.5697150161  4.6447250298  42.8372738525
  373  1  8.5247081764  2.1767306518  51.672232604
  374  1  7.631714572  0.959726931  50.7402703153
  375  1  6.709708355  2.8717295735  52.6892252873
  376  1  5.6927156387  1.6007291847  51.8381922488
  377  1  5.9787135904  11.9421828662  37.9192725826
  378  1  6.7357081688  0.5827248356  36.6712487627
  379  1  6.1857121079  1.1707296744  39.5022231979
  380  1  6.178712158  2.2097306716  38.046225787
  381  1  11.5651351186  4.6307231523  36.0252729459
  382  1  12.5911277704  4.2037337372  37.3552285179
  383  1  0.6657131808  3.9347249777  34.8291969556
  384  1  1.874704522  4.3847218832  36.1522261503
  385  1  8.93470524  11.3797268278  47.6752572376
  386  1  9.0737042444  9.6237310079  47.6372532992
  387  1  7.3377038572  11.3067320177  46.2012147911
  388  1  7.7177139561  9.6517224265  45.5042025103
  389  1  12.3971291598  2.9557285024  51.2482654059
  390  1  11.9591322968  1.9097327346  49.8422108205
  391  1  1.5337069642  1.8247222163  51.5922147192
  392  1  1.3237084683  1.0487221246  50.0452630383
  393  1  2.5887122287  8.8537264337  42.6122577278
  394  1  2.0817158599  10.4827307756  41.8532725977
  395  1  0.9597110752  9.3487267307  44.2192683905
  396  1  0.5587139472  10.822723503  43.4572757545
  397  1  5.7027155671  6.9307320089  54.3582087993
  398  1  4.725709744  5.5107319046  54.2032766762
  399  1  4.274712974  8.1277259981  55.4022690359
  400  1  3.3787065708  6.6647333446  55.8972316009
  401  1  7.1127054687  10.2637340087  43.3462714451
  402  1  5.7227154239  9.2677255606  42.8352688485
  403  1  6.3907106397  12.0697294848  41.985238312
  404  1  5.0727072588  11.0747326261  41.5482385883
  405  1  3.1847079602  11.4447276145  53.9022526746
  406  1  1.5557068067  10.9247336576  53.6082461869
  407  1  3.1757080246  10.6747230403  55.9561969442
  408  1  1.6187063555  9.75673034  55.5962075994
  409  1  9.1787163128  8.8817301888  52.6041948927
  410  1  9.0077047171  9.2527244301  54.3171973549
  411  1  8.4137089714  11.0887221672  51.9602240798
  412  1  8.9427051827  11.5627258161  53.4882193598
  413  1  0.0777045717  11.428184427  38.3722212013
  414  1  0.9497111468  11.9171892064  39.8112672152
  415  1  0.4187149499  1.9227230228  38.8972588255
  416  1  12.4401288519  1.0797236385  37.6242635929
  417  1  0.1222939959  4.9787222396  52.5632745849
  418  1  0.856288739  6.3707309252  53.2971971657
  419  1  11.0167159695  6.5597254312  52.0322219488
  420  1  12.3427064727  7.7707336344  52.0892734247
