Cl Li P  S  O  H 
 1.0000000000000000
     9.6239004134999995    0.0000000000000000    0.0000000000000000
    -0.0003960361000000    9.8809995571999991    0.0000000000000000
     0.0000000000000000    0.0000000000000000   24.5660991668999991
 Cl  Li  P   S   O   H  
   4  24   4  20   1   2
Selective dynamics
Direct
  0.0068840301253629  0.5204825370837494  0.2611082012664940   T   T   T
  0.4866133349127235  0.0112240169740693  0.2604585171266359   T   T   T
  0.7514293610399498  0.7674985538707604  0.1670889394258430   T   T   T
  0.7303298207312319  0.2895403191186780  0.3663088712437431   T   T   T
  0.3114817410012545  0.8190719234872502  0.2893655375407721   T   T   T
  0.1988269057997412  0.0107045770387160  0.1529466327122235   T   T   T
  0.6481300000000019  0.6548399930000031  0.0138499999999979   F   F   F
  0.6785192884767113  0.1200366997649250  0.3060181920996566   T   T   T
  0.7953787334563430  0.4053632088135594  0.2870195231793249   T   T   T
  0.1959829844609924  0.4638569968662751  0.1928982217712710   T   T   T
  0.1677400020000022  0.1598799969999973  0.0551099999999991   F   F   F
  0.6524041566736042  0.8232990628305314  0.2562788190454933   T   T   T
  0.8183868807014409  0.9986649323350155  0.1565068158782209   T   T   T
  0.0161171255108663  0.7285612279923984  0.3115594244812750   T   T   T
  0.3443399969999987  0.3578900099999984  0.0768899990000023   F   F   F
  0.4852830281842315  0.1904160199591809  0.1826869701775446   T   T   T
  0.3887099920000026  0.6499000190000004  0.1196499990000035   F   F   F
  0.0096052227358480  0.2189504757610826  0.1506284395032839   T   T   T
  0.9733840614832205  0.6906945323451255  0.1917439723675357   T   T   T
  0.5533080083427666  0.4525286392653513  0.3815306899025234   T   T   T
  0.2789793650393885  0.1886114154794749  0.2583879968632455   T   T   T
  0.1465200040000028  0.8226100210000026  0.0600799990000027   F   F   F
  0.1947412003046808  0.5244905255054683  0.3279593428530076   T   T   T
  0.1053434043871940  0.9316957210943990  0.3843470641917921   T   T   T
  0.8115800019999995  0.0772700010000023  0.0404400010000003   F   F   F
  0.6572800280000024  0.3369599879999967  0.0628999990000025   F   F   F
  0.8395000100000019  0.8174399729999990  0.0754200000000012   F   F   F
  0.6744502975914529  0.5412948962824493  0.1395252430779345   T   T   T
  0.5036299819999996  0.0092300000000023  0.0575000010000011   F   F   F
  0.4990794227741778  0.5049380956008132  0.2621765070321537   T   T   T
  0.0094599999999971  0.5060999989999999  0.0625500009999982   F   F   F
  0.9828671363952729  0.0216221434977735  0.2772266720647780   T   T   T
  0.6480500099999986  0.9029200080000023  0.0115800000000021   F   F   F
  0.3956899940000014  0.1397099940000004  0.0108900000000034   F   F   F
  0.2080200248950148  0.7308459346394863  0.3688581021239696   T   T   T
  0.1100755015077604  0.1288720205847244  0.3271343698428368   T   T   T
  0.6328899860000021  0.1231800019999980  0.1093600020000025   F   F   F
  0.1001174776731244  0.8867562263573886  0.2308065342598830   T   T   T
  0.3773599860000019  0.8875700239999987  0.1035400029999991   F   F   F
  0.8450010627318371  0.9091612984834284  0.3229276182092768   T   T   T
  0.5197299720000004  0.5174400209999988  0.0665400030000001   F   F   F
  0.6198472272602369  0.3863551080461851  0.2126335911037797   T   T   T
  0.3719486012561583  0.6355664491169700  0.2200081187487169   T   T   T
  0.3818149241023863  0.3764580433585697  0.3099543867968476   T   T   T
  0.6303776384583555  0.6175881682988095  0.3095104498636139   T   T   T
  0.8659310578099216  0.1501593240170459  0.2298342872866019   T   T   T
  0.9118800159999977  0.6454499959999964  0.0137700000000009   F   F   F
  0.2515720645948656  0.2436657693319917  0.1624312284689174   T   T   T
  0.1258299949999966  0.6211799980000023  0.1188800039999975   F   F   F
  0.0011600260000009  0.0049400329999969  0.0887399989999977   F   F   F
  0.8726300000000009  0.3969700040000035  0.1100599990000006   F   F   F
  0.1321299969999998  0.3858099879999983  0.0171700009999967   F   F   F
  0.4374211284129653  0.5556670516967712  0.4288665686875704   T   T   T
  0.4462253367759673  0.5869430029968064  0.4661292226715929   T   T   T
  0.3666133581653978  0.6167965024588038  0.4112201068251654   T   T   T
 
