Cl Li P  S  O  H 
 1.0000000000000000
     9.6239004134999995    0.0000000000000000    0.0000000000000000
    -0.0003960361000008    9.8809995571999991    0.0000000000000000
     0.0000000000000000    0.0000000000000000   24.5660991668999991
 Cl  Li  P   S   O   H  
   4  24   4  20   1   2
Selective dynamics
Direct
 -0.0027542513487566  0.5207797866020698  0.2590657909437341   T   T   T
  0.4936415505293700  0.0131157113297803  0.2594602905981275   T   T   T
  0.7519738450834611  0.7665508308974360  0.1672701564123427   T   T   T
  0.7308546724085224  0.2869656393479522  0.3668052505200228   T   T   T
  0.3316836912444378  0.8350275881795234  0.2842911406502930   T   T   T
  0.1996310262922024  0.0114446940670647  0.1531420398594256   T   T   T
  0.6481300000000019  0.6548399930000031  0.0138499999999979   F   F   F
  0.6810577010175929  0.1264421772943201  0.3037040593303805   T   T   T
  0.7873218953166019  0.4248892967452214  0.2923285447437746   T   T   T
  0.1957525101343429  0.4670829215073432  0.1980783557230549   T   T   T
  0.1677400020000022  0.1598799969999973  0.0551099999999991   F   F   F
  0.6544635103086589  0.8165774334130916  0.2566165812981374   T   T   T
  0.8158935358820684  0.9958681224066238  0.1552378892379187   T   T   T
  0.0269126250347314  0.7137999908379760  0.3082034133221799   T   T   T
  0.3443399969999987  0.3578900099999984  0.0768899990000023   F   F   F
  0.4857527100942925  0.1999015967707296  0.1815733129566200   T   T   T
  0.3887099920000026  0.6499000190000004  0.1196499990000035   F   F   F
  0.0086865225678899  0.2198410070141683  0.1507414895562661   T   T   T
  0.9727388738931431  0.6875138242889107  0.1910971184969697   T   T   T
  0.5390430186413114  0.4284982900526446  0.3892292416261879   T   T   T
  0.2753403634112787  0.1965612973000935  0.2576240742307769   T   T   T
  0.1465200040000028  0.8226100210000026  0.0600799990000027   F   F   F
  0.2785858820681896  0.5294508478654977  0.3788080707994854   T   T   T
  0.0553033392264949  0.9528176017972232  0.3861163767639545   T   T   T
  0.8115800019999995  0.0772700010000023  0.0404400010000003   F   F   F
  0.6572800280000025  0.3369599879999967  0.0628999990000025   F   F   F
  0.8395000100000019  0.8174399729999990  0.0754200000000012   F   F   F
  0.6733686043272638  0.5396062539918520  0.1403010249962126   T   T   T
  0.5036299819999996  0.0092300000000023  0.0575000010000011   F   F   F
  0.4939068903137643  0.5104579139737965  0.2641632503651479   T   T   T
  0.0094599999999971  0.5060999989999999  0.0625500009999982   F   F   F
  0.9862803978051506  0.0188354655616605  0.2766887434243737   T   T   T
  0.6480500099999985  0.9029200080000023  0.0115800000000021   F   F   F
  0.3956899940000014  0.1397099940000004  0.0108900000000034   F   F   F
  0.2152162892607596  0.7746548092022443  0.3691709603234574   T   T   T
  0.1081808666946728  0.1327544436072856  0.3257889577209356   T   T   T
  0.6328899860000021  0.1231800019999980  0.1093600020000025   F   F   F
  0.1070253504044468  0.8821330471368561  0.2323625906482189   T   T   T
  0.3773599860000019  0.8875700239999987  0.1035400029999991   F   F   F
  0.8541294785593665  0.9014410621393854  0.3240340163192699   T   T   T
  0.5197299720000005  0.5174400209999988  0.0665400030000001   F   F   F
  0.6203329134018961  0.3917576832585070  0.2163696531401491   T   T   T
  0.3774924307273889  0.6452315532995602  0.2192424944340377   T   T   T
  0.3665307349708619  0.3848611221152078  0.3078316491970302   T   T   T
  0.6173885567867284  0.6213194115746606  0.3153726655275631   T   T   T
  0.8650021333209444  0.1405496875890008  0.2288535446221005   T   T   T
  0.9118800159999977  0.6454499959999964  0.0137700000000009   F   F   F
  0.2503583985629965  0.2459996198968177  0.1625036977366174   T   T   T
  0.1258299949999966  0.6211799980000023  0.1188800039999975   F   F   F
  0.0011599999999987  0.0049399999999977  0.0887399989999977   F   F   F
  0.8726300000000009  0.3969700040000035  0.1100599990000006   F   F   F
  0.1321299969999998  0.3858099879999983  0.0171700009999967   F   F   F
  0.4015822616219105  0.4999520860556653  0.4308871374325431   T   T   T
  0.4038913902651878  0.5144164408435622  0.4697146619263860   T   T   T
  0.2925421344687021  0.7299065351546640  0.4116603109456802   T   T   T
